NAME : kroA100
TYPE : OP
DIMENSION : 100
COST_LIMIT : 10641
ROUTE_NODES : 55
ROUTE_SCORE : 3212
ROUTE_COST : 10631
NODE_SEQUENCE_SECTION
1
93
28
67
54
40
64
44
50
73
69
81
25
61
51
87
57
9
7
83
55
12
20
27
86
35
62
60
77
23
98
91
45
32
11
15
17
59
74
21
72
10
84
38
24
18
94
22
16
88
79
90
49
6
63
-1
DEPOT_SECTION
1
-1
EOF
